p = 10;
s = 5;
b = 2;
c = 10;
t = 5;
g = 2;
graph = [| 1,1,0,0,1
	| 1,0,1,1,0
	| 1,1,0,0,1
	| 1,1,0,0,1
	| 0,0,0,0,0
	| 0,0,1,1,1
	| 0,1,1,0,1
	| 0,0,0,1,1
	| 0,0,1,1,0
	| 1,0,1,0,1
	|];
groups = [
	{7,10,8,5},{6,4,1,9}
]